Using license file /home/benedond/gurobi.lic
Using gurobi.env file
Set parameter Threads to value 1
Academic license - for non-commercial use only
Changed value of parameter TimeLimit to 300.0
   Prev: inf  Min: 0.0  Max: inf  Default: inf
Gurobi Optimizer version 9.0.1 build v9.0.1rc0 (linux64)
Optimize a model with 102 rows, 76 columns and 322 nonzeros
Model fingerprint: 0x260f002b
Variable types: 10 continuous, 66 integer (66 binary)
Coefficient statistics:
  Matrix range     [2e-01, 3e+02]
  Objective range  [4e-02, 2e+00]
  Bounds range     [1e+00, 1e+00]
  RHS range        [1e+00, 2e+02]
Found heuristic solution: objective 5.0518824
Presolve removed 102 rows and 76 columns
Presolve time: 0.00s
Presolve: All rows and columns removed

Explored 0 nodes (0 simplex iterations) in 0.00 seconds
Thread count was 1 (of 4 available processors)

Solution count 2: 4.12324 

Optimal solution found (tolerance 1.00e-04)
Best objective 4.123235354441e+00, best bound 4.123235354441e+00, gap 0.0000%
